results_rootrelaxation/bin012_050_008.srr.sol
solution status: optimal solution found
objective value:                 -2.05391259555654e-15
_var20_                             0.175930714438399 	(obj:0)
_var297_                            0.292043331057837 	(obj:0)
_var490_                            0.361515070023387 	(obj:0)
_var495_                           0.0651207049916096 	(obj:0)
_var537_                           0.0272094771174304 	(obj:0)
_var687_                            0.019534832405895 	(obj:0)
_var690_                            0.316853188804534 	(obj:0)
_var692_                            0.405432241782344 	(obj:0)
_var698_                            0.094688428731996 	(obj:0)
_var699_                            0.352509601925213 	(obj:0)
_var702_                           0.0338704895085542 	(obj:0)
_var717_                            0.136923108748268 	(obj:0)
_var722_                            0.175841073484893 	(obj:0)
_var724_                            0.338477344972872 	(obj:0)
_var726_                           0.0187073774504689 	(obj:0)
_var727_                             0.24347862063259 	(obj:0)
_var728_                            0.404011777442192 	(obj:0)
_var731_                            0.189487184791382 	(obj:0)
_var734_                           0.0440481854602328 	(obj:0)
_var740_                            0.403046413327549 	(obj:0)
_var744_                          0.00243409666052864 	(obj:0)
_var746_                            0.355771153541152 	(obj:0)
_var747_                            0.350771946518822 	(obj:0)
_var748_                            0.266812850375463 	(obj:0)
_var750_                           0.0320776704384823 	(obj:0)
_var753_                           0.0946263696103365 	(obj:0)
_var754_                           0.0284092868027905 	(obj:0)
_var755_                           0.0474269598615403 	(obj:0)
_var756_                            0.463236865876449 	(obj:0)
_var761_                            0.111796059935314 	(obj:0)
_var765_                            0.033918757714286 	(obj:0)
_var766_                            0.313177909710877 	(obj:0)
_var769_                           0.0482475193590103 	(obj:0)
_var771_                            0.279728043137985 	(obj:0)
_var774_                            0.584941698902935 	(obj:0)
_var775_                            0.083221282141445 	(obj:0)
_var777_                            0.328940926611645 	(obj:0)
_var779_                            0.171579680464475 	(obj:0)
_var782_                            0.310454203815937 	(obj:0)
_var783_                          0.00337877440130752 	(obj:0)
_var786_                            0.517759251980723 	(obj:0)
_var790_                          0.00513022072361458 	(obj:0)
_var792_                            0.161836398364399 	(obj:0)
_var795_                            0.322762596277822 	(obj:0)
_var796_                            0.370189556139364 	(obj:0)
_var798_                             0.04500665411693 	(obj:0)
_var800_                           0.0712576625776599 	(obj:0)
_var803_                          0.00737814001916615 	(obj:0)
_var804_                            0.101411500244801 	(obj:0)
_var805_                            0.180929921460736 	(obj:0)
_var806_                                0.21503485654 	(obj:0)
_var808_                          0.000682650338221402 	(obj:0)
_var809_                            0.149596960482128 	(obj:0)
_var810_                            0.132179033670516 	(obj:0)
_var811_                            0.104604097281125 	(obj:0)
_var812_                           0.0679616336719018 	(obj:0)
_var813_                            0.195548292339826 	(obj:0)
_var814_                           0.0121704833026569 	(obj:0)
_var815_                            0.064927632168687 	(obj:0)
_var816_                           0.0483302648545441 	(obj:0)
_var817_                            0.059156133854629 	(obj:0)
_var818_                           0.0448687449577009 	(obj:0)
_var820_                           0.0290436689352663 	(obj:0)
_var827_                           0.0825524227191528 	(obj:0)
