results_rootrelaxation/bin012_050_008.srr.log
SCIP version 8.0.3.5 [precision: 8 byte] [memory: block] [mode: optimized] [LP solver: Soplex 6.0.1.3] [GitHash: 438792519e]
Copyright (c) 2002-2023 Zuse Institute Berlin (ZIB)

External libraries: 
  Readline 8.1         GNU library for command line editing (gnu.org/s/readline)
  Soplex 6.0.1.3       Linear Programming Solver developed at Zuse Institute Berlin (soplex.zib.de) [GitHash: 713be0fe]
  CppAD 20180000.0     Algorithmic Differentiation of C++ algorithms developed by B. Bell (github.com/coin-or/CppAD)
  ZLIB 1.2.11          General purpose compression library by J. Gailly and M. Adler (zlib.net)
  bliss 0.77           Computing Graph Automorphism Groups by T. Junttila and P. Kaski (www.tcs.hut.fi/Software/bliss/)

user parameter file <scip.set> not found - using default parameters

srr/relaxation = TRUE

read problem <instances/bin012_050_008.srr>
============

Original problem: 
original problem has 0 variables (0 bin, 0 int, 0 impl, 0 cont) and 77 constraints

presolving:
presolving (1 rounds: 1 fast, 1 medium, 1 exhaustive):
 0 deleted vars, 0 deleted constraints, 0 added constraints, 0 tightened bounds, 0 added holes, 0 changed sides, 0 changed coefficients
 0 implications, 0 cliques
presolved problem has 0 variables (0 bin, 0 int, 0 impl, 0 cont) and 77 constraints
     77 constraints of type <linear>
Presolving Time: 0.00

 time | node  | left  |LP iter|LP it/n|mem/heur|mdpt |vars |cons |rows |cuts |sepa|confs|strbr|  dualbound   | primalbound  |  gap   | compl. 
  0.0s|     1 |     0 |     1 |     - |   710k |   0 |   1 |  77 |  77 |   0 |  0 |   0 |   0 |      --      |      --      |    Inf | unknown
r 0.0s|     1 |     0 |  1218 |     - |simplero|   0 | 663 |  77 |  77 |   0 |  0 |   0 |   0 |      --      | 1.564123e+01 |    Inf | unknown
r 0.0s|     1 |     0 |  1240 |     - |simplero|   0 | 674 |  77 |  77 |   0 |  0 |   0 |   0 |      --      | 1.477207e+01 |    Inf | unknown
r 0.0s|     1 |     0 |  1280 |     - |simplero|   0 | 685 |  77 |  77 |   0 |  0 |   0 |   0 |      --      | 1.355374e+01 |    Inf | unknown
r 0.1s|     1 |     0 |  1335 |     - |simplero|   0 | 696 |  77 |  77 |   0 |  0 |   0 |   0 |      --      | 1.118321e+01 |    Inf | unknown
r 0.1s|     1 |     0 |  1377 |     - |simplero|   0 | 707 |  77 |  77 |   0 |  0 |   0 |   0 |      --      | 9.946021e+00 |    Inf | unknown
r 0.1s|     1 |     0 |  1418 |     - |simplero|   0 | 718 |  77 |  77 |   0 |  0 |   0 |   0 |      --      | 8.838098e+00 |    Inf | unknown
r 0.1s|     1 |     0 |  1423 |     - |simplero|   0 | 718 |  77 |  77 |   0 |  0 |   0 |   0 |      --      | 8.834819e+00 |    Inf | unknown
r 0.1s|     1 |     0 |  1475 |     - |simplero|   0 | 729 |  77 |  77 |   0 |  0 |   0 |   0 |      --      | 7.986284e+00 |    Inf | unknown
r 0.1s|     1 |     0 |  1483 |     - |simplero|   0 | 729 |  77 |  77 |   0 |  0 |   0 |   0 |      --      | 7.961749e+00 |    Inf | unknown
r 0.1s|     1 |     0 |  1487 |     - |simplero|   0 | 729 |  77 |  77 |   0 |  0 |   0 |   0 |      --      | 7.957736e+00 |    Inf | unknown
r 0.1s|     1 |     0 |  1545 |     - |simplero|   0 | 740 |  77 |  77 |   0 |  0 |   0 |   0 |      --      | 6.728135e+00 |    Inf | unknown
r 0.1s|     1 |     0 |  1547 |     - |simplero|   0 | 740 |  77 |  77 |   0 |  0 |   0 |   0 |      --      | 6.727466e+00 |    Inf | unknown
r 0.1s|     1 |     0 |  1578 |     - |simplero|   0 | 751 |  77 |  77 |   0 |  0 |   0 |   0 |      --      | 5.178008e+00 |    Inf | unknown
r 0.1s|     1 |     0 |  1605 |     - |simplero|   0 | 751 |  77 |  77 |   0 |  0 |   0 |   0 |      --      | 4.894616e+00 |    Inf | unknown
 time | node  | left  |LP iter|LP it/n|mem/heur|mdpt |vars |cons |rows |cuts |sepa|confs|strbr|  dualbound   | primalbound  |  gap   | compl. 
r 0.1s|     1 |     0 |  1608 |     - |simplero|   0 | 751 |  77 |  77 |   0 |  0 |   0 |   0 |      --      | 4.892321e+00 |    Inf | unknown
r 0.1s|     1 |     0 |  1654 |     - |simplero|   0 | 762 |  77 |  77 |   0 |  0 |   0 |   0 |      --      | 3.639823e+00 |    Inf | unknown
r 0.1s|     1 |     0 |  1665 |     - |simplero|   0 | 762 |  77 |  77 |   0 |  0 |   0 |   0 |      --      | 3.579461e+00 |    Inf | unknown
r 0.1s|     1 |     0 |  1702 |     - |simplero|   0 | 773 |  77 |  77 |   0 |  0 |   0 |   0 |      --      | 2.641717e+00 |    Inf | unknown
r 0.1s|     1 |     0 |  1715 |     - |simplero|   0 | 773 |  77 |  77 |   0 |  0 |   0 |   0 |      --      | 2.381910e+00 |    Inf | unknown
r 0.1s|     1 |     0 |  1747 |     - |simplero|   0 | 784 |  77 |  77 |   0 |  0 |   0 |   0 |      --      | 1.415558e+00 |    Inf | unknown
r 0.1s|     1 |     0 |  1758 |     - |simplero|   0 | 784 |  77 |  77 |   0 |  0 |   0 |   0 |      --      | 1.346070e+00 |    Inf | unknown
r 0.1s|     1 |     0 |  1804 |     - |simplero|   0 | 795 |  77 |  77 |   0 |  0 |   0 |   0 |      --      | 7.516292e-01 |    Inf | unknown
r 0.1s|     1 |     0 |  1842 |     - |simplero|   0 | 806 |  77 |  77 |   0 |  0 |   0 |   0 |      --      | 3.701584e-01 |    Inf | unknown
r 0.1s|     1 |     0 |  1845 |     - |simplero|   0 | 806 |  77 |  77 |   0 |  0 |   0 |   0 |      --      | 3.598912e-01 |    Inf | unknown
r 0.1s|     1 |     0 |  1871 |     - |simplero|   0 | 817 |  77 |  77 |   0 |  0 |   0 |   0 |      --      | 8.235231e-02 |    Inf | unknown
r 0.1s|     1 |     0 |  1884 |     - |simplero|   0 | 817 |  77 |  77 |   0 |  0 |   0 |   0 |      --      | 6.192219e-02 |    Inf | unknown
r 0.1s|     1 |     0 |  1898 |     - |simplero|   0 | 828 |  77 |  77 |   0 |  0 |   0 |   0 |      --      |-2.053913e-15 |    Inf | unknown
  0.1s|     1 |     0 |  1898 |     - |  4051k |   0 | 828 |  77 |  77 |   0 |  0 |   0 |   0 |-2.053913e-15 |-2.053913e-15 |   0.00%| unknown
  0.1s|     1 |     0 |  1898 |     - |  4051k |   0 | 828 |  77 |  77 |   0 |  0 |   0 |   0 |-2.053913e-15 |-2.053913e-15 |   0.00%| unknown

SCIP Status        : problem is solved [optimal solution found]
Solving Time (sec) : 0.09
Solving Nodes      : 1
Primal Bound       : -2.05391259555654e-15 (27 solutions)
Dual Bound         : -2.05391259555654e-15
Gap                : 0.00 %

written transformed problem to file <results_rootrelaxation/bin012_050_008.srr.lp>
written transformed problem to file <results_rootrelaxation/bin012_050_008.srr.cip>


SCIP version 8.0.3.5 [precision: 8 byte] [memory: block] [mode: optimized] [LP solver: Soplex 6.0.1.3] [GitHash: 438792519e]
Copyright (c) 2002-2023 Zuse Institute Berlin (ZIB)

External libraries: 
  Readline 8.1         GNU library for command line editing (gnu.org/s/readline)
  Soplex 6.0.1.3       Linear Programming Solver developed at Zuse Institute Berlin (soplex.zib.de) [GitHash: 713be0fe]
  CppAD 20180000.0     Algorithmic Differentiation of C++ algorithms developed by B. Bell (github.com/coin-or/CppAD)
  ZLIB 1.2.11          General purpose compression library by J. Gailly and M. Adler (zlib.net)
  bliss 0.77           Computing Graph Automorphism Groups by T. Junttila and P. Kaski (www.tcs.hut.fi/Software/bliss/)

user parameter file <scip.set> not found - using default parameters

srr/relaxation = TRUE

read problem <instances/bin012_050_008.srr>
============

Original problem: 
original problem has 0 variables (0 bin, 0 int, 0 impl, 0 cont) and 77 constraints

presolving:
presolving (1 rounds: 1 fast, 1 medium, 1 exhaustive):
 0 deleted vars, 0 deleted constraints, 0 added constraints, 0 tightened bounds, 0 added holes, 0 changed sides, 0 changed coefficients
 0 implications, 0 cliques
presolved problem has 0 variables (0 bin, 0 int, 0 impl, 0 cont) and 77 constraints
     77 constraints of type <linear>
Presolving Time: 0.00

 time | node  | left  |LP iter|LP it/n|mem/heur|mdpt |vars |cons |rows |cuts |sepa|confs|strbr|  dualbound   | primalbound  |  gap   | compl. 
  0.0s|     1 |     0 |     1 |     - |   710k |   0 |   1 |  77 |  77 |   0 |  0 |   0 |   0 |      --      |      --      |    Inf | unknown
r 0.1s|     1 |     0 |  1218 |     - |simplero|   0 | 663 |  77 |  77 |   0 |  0 |   0 |   0 |      --      | 1.564123e+01 |    Inf | unknown
r 0.1s|     1 |     0 |  1240 |     - |simplero|   0 | 674 |  77 |  77 |   0 |  0 |   0 |   0 |      --      | 1.477207e+01 |    Inf | unknown
r 0.1s|     1 |     0 |  1280 |     - |simplero|   0 | 685 |  77 |  77 |   0 |  0 |   0 |   0 |      --      | 1.355374e+01 |    Inf | unknown
r 0.1s|     1 |     0 |  1335 |     - |simplero|   0 | 696 |  77 |  77 |   0 |  0 |   0 |   0 |      --      | 1.118321e+01 |    Inf | unknown
r 0.1s|     1 |     0 |  1377 |     - |simplero|   0 | 707 |  77 |  77 |   0 |  0 |   0 |   0 |      --      | 9.946021e+00 |    Inf | unknown
r 0.1s|     1 |     0 |  1418 |     - |simplero|   0 | 718 |  77 |  77 |   0 |  0 |   0 |   0 |      --      | 8.838098e+00 |    Inf | unknown
r 0.1s|     1 |     0 |  1423 |     - |simplero|   0 | 718 |  77 |  77 |   0 |  0 |   0 |   0 |      --      | 8.834819e+00 |    Inf | unknown
r 0.1s|     1 |     0 |  1475 |     - |simplero|   0 | 729 |  77 |  77 |   0 |  0 |   0 |   0 |      --      | 7.986284e+00 |    Inf | unknown
r 0.1s|     1 |     0 |  1483 |     - |simplero|   0 | 729 |  77 |  77 |   0 |  0 |   0 |   0 |      --      | 7.961749e+00 |    Inf | unknown
r 0.1s|     1 |     0 |  1487 |     - |simplero|   0 | 729 |  77 |  77 |   0 |  0 |   0 |   0 |      --      | 7.957736e+00 |    Inf | unknown
r 0.1s|     1 |     0 |  1545 |     - |simplero|   0 | 740 |  77 |  77 |   0 |  0 |   0 |   0 |      --      | 6.728135e+00 |    Inf | unknown
r 0.1s|     1 |     0 |  1547 |     - |simplero|   0 | 740 |  77 |  77 |   0 |  0 |   0 |   0 |      --      | 6.727466e+00 |    Inf | unknown
r 0.1s|     1 |     0 |  1578 |     - |simplero|   0 | 751 |  77 |  77 |   0 |  0 |   0 |   0 |      --      | 5.178008e+00 |    Inf | unknown
r 0.1s|     1 |     0 |  1605 |     - |simplero|   0 | 751 |  77 |  77 |   0 |  0 |   0 |   0 |      --      | 4.894616e+00 |    Inf | unknown
 time | node  | left  |LP iter|LP it/n|mem/heur|mdpt |vars |cons |rows |cuts |sepa|confs|strbr|  dualbound   | primalbound  |  gap   | compl. 
r 0.1s|     1 |     0 |  1608 |     - |simplero|   0 | 751 |  77 |  77 |   0 |  0 |   0 |   0 |      --      | 4.892321e+00 |    Inf | unknown
r 0.1s|     1 |     0 |  1654 |     - |simplero|   0 | 762 |  77 |  77 |   0 |  0 |   0 |   0 |      --      | 3.639823e+00 |    Inf | unknown
r 0.1s|     1 |     0 |  1665 |     - |simplero|   0 | 762 |  77 |  77 |   0 |  0 |   0 |   0 |      --      | 3.579461e+00 |    Inf | unknown
r 0.1s|     1 |     0 |  1702 |     - |simplero|   0 | 773 |  77 |  77 |   0 |  0 |   0 |   0 |      --      | 2.641717e+00 |    Inf | unknown
r 0.1s|     1 |     0 |  1715 |     - |simplero|   0 | 773 |  77 |  77 |   0 |  0 |   0 |   0 |      --      | 2.381910e+00 |    Inf | unknown
r 0.1s|     1 |     0 |  1747 |     - |simplero|   0 | 784 |  77 |  77 |   0 |  0 |   0 |   0 |      --      | 1.415558e+00 |    Inf | unknown
r 0.1s|     1 |     0 |  1758 |     - |simplero|   0 | 784 |  77 |  77 |   0 |  0 |   0 |   0 |      --      | 1.346070e+00 |    Inf | unknown
r 0.1s|     1 |     0 |  1804 |     - |simplero|   0 | 795 |  77 |  77 |   0 |  0 |   0 |   0 |      --      | 7.516292e-01 |    Inf | unknown
r 0.1s|     1 |     0 |  1842 |     - |simplero|   0 | 806 |  77 |  77 |   0 |  0 |   0 |   0 |      --      | 3.701584e-01 |    Inf | unknown
r 0.1s|     1 |     0 |  1845 |     - |simplero|   0 | 806 |  77 |  77 |   0 |  0 |   0 |   0 |      --      | 3.598912e-01 |    Inf | unknown
r 0.1s|     1 |     0 |  1871 |     - |simplero|   0 | 817 |  77 |  77 |   0 |  0 |   0 |   0 |      --      | 8.235231e-02 |    Inf | unknown
r 0.1s|     1 |     0 |  1884 |     - |simplero|   0 | 817 |  77 |  77 |   0 |  0 |   0 |   0 |      --      | 6.192219e-02 |    Inf | unknown
r 0.1s|     1 |     0 |  1898 |     - |simplero|   0 | 828 |  77 |  77 |   0 |  0 |   0 |   0 |      --      |-2.053913e-15 |    Inf | unknown
  0.1s|     1 |     0 |  1898 |     - |  4051k |   0 | 828 |  77 |  77 |   0 |  0 |   0 |   0 |-2.053913e-15 |-2.053913e-15 |   0.00%| unknown
  0.1s|     1 |     0 |  1898 |     - |  4051k |   0 | 828 |  77 |  77 |   0 |  0 |   0 |   0 |-2.053913e-15 |-2.053913e-15 |   0.00%| unknown

SCIP Status        : problem is solved [optimal solution found]
Solving Time (sec) : 0.09
Solving Nodes      : 1
Primal Bound       : -2.05391259555654e-15 (27 solutions)
Dual Bound         : -2.05391259555654e-15
Gap                : 0.00 %

written transformed problem to file <results_rootrelaxation/bin012_050_008.srr.lp>
written transformed problem to file <results_rootrelaxation/bin012_050_008.srr.cip>

written solution information to file <results_rootrelaxation/bin012_050_008.srr.sol>



